\ Model sspwp
\ LP format - for model browsing. Use MPS format to capture full model detail.
Minimize
  h_max + 3 pxf[1] + 3 pxf[2] + 3 pxf[3] + 3 pxf[4] + 3 pxf[5] + 3 pxf[6]
   + 3 pxf[7] + 3 pxf[8] + 3 pxf[9] + 3 pxf[10] + 3 pxf[11] + 3 pxf[12]
Subject To
 c012: 1000 d[1,2] + y[1] - y[2] <= 980
 c013: 1000 d[1,3] + y[1] - y[3] <= 980
 c014: 1000 d[1,4] + y[1] - y[4] <= 980
 c015: 1000 d[1,5] + y[1] - y[5] <= 980
 c016: 1000 d[1,6] + y[1] - y[6] <= 980
 c017: 1000 d[1,7] + y[1] - y[7] <= 980
 c018: 1000 d[1,8] + y[1] - y[8] <= 980
 c019: 1000 d[1,9] + y[1] - y[9] <= 980
 c0110: 1000 d[1,10] + y[1] - y[10] <= 980
 c0111: 1000 d[1,11] + y[1] - y[11] <= 980
 c0112: 1000 d[1,12] + y[1] - y[12] <= 980
 c021: 1000 d[2,1] - y[1] + y[2] <= 983
 c023: 1000 d[2,3] + y[2] - y[3] <= 983
 c024: 1000 d[2,4] + y[2] - y[4] <= 983
 c025: 1000 d[2,5] + y[2] - y[5] <= 983
 c026: 1000 d[2,6] + y[2] - y[6] <= 983
 c027: 1000 d[2,7] + y[2] - y[7] <= 983
 c028: 1000 d[2,8] + y[2] - y[8] <= 983
 c029: 1000 d[2,9] + y[2] - y[9] <= 983
 c0210: 1000 d[2,10] + y[2] - y[10] <= 983
 c0211: 1000 d[2,11] + y[2] - y[11] <= 983
 c0212: 1000 d[2,12] + y[2] - y[12] <= 983
 c031: 1000 d[3,1] - y[1] + y[3] <= 984
 c032: 1000 d[3,2] - y[2] + y[3] <= 984
 c034: 1000 d[3,4] + y[3] - y[4] <= 984
 c035: 1000 d[3,5] + y[3] - y[5] <= 984
 c036: 1000 d[3,6] + y[3] - y[6] <= 984
 c037: 1000 d[3,7] + y[3] - y[7] <= 984
 c038: 1000 d[3,8] + y[3] - y[8] <= 984
 c039: 1000 d[3,9] + y[3] - y[9] <= 984
 c0310: 1000 d[3,10] + y[3] - y[10] <= 984
 c0311: 1000 d[3,11] + y[3] - y[11] <= 984
 c0312: 1000 d[3,12] + y[3] - y[12] <= 984
 c041: 1000 d[4,1] - y[1] + y[4] <= 985
 c042: 1000 d[4,2] - y[2] + y[4] <= 985
 c043: 1000 d[4,3] - y[3] + y[4] <= 985
 c045: 1000 d[4,5] + y[4] - y[5] <= 985
 c046: 1000 d[4,6] + y[4] - y[6] <= 985
 c047: 1000 d[4,7] + y[4] - y[7] <= 985
 c048: 1000 d[4,8] + y[4] - y[8] <= 985
 c049: 1000 d[4,9] + y[4] - y[9] <= 985
 c0410: 1000 d[4,10] + y[4] - y[10] <= 985
 c0411: 1000 d[4,11] + y[4] - y[11] <= 985
 c0412: 1000 d[4,12] + y[4] - y[12] <= 985
 c051: 1000 d[5,1] - y[1] + y[5] <= 991
 c052: 1000 d[5,2] - y[2] + y[5] <= 991
 c053: 1000 d[5,3] - y[3] + y[5] <= 991
 c054: 1000 d[5,4] - y[4] + y[5] <= 991
 c056: 1000 d[5,6] + y[5] - y[6] <= 991
 c057: 1000 d[5,7] + y[5] - y[7] <= 991
 c058: 1000 d[5,8] + y[5] - y[8] <= 991
 c059: 1000 d[5,9] + y[5] - y[9] <= 991
 c0510: 1000 d[5,10] + y[5] - y[10] <= 991
 c0511: 1000 d[5,11] + y[5] - y[11] <= 991
 c0512: 1000 d[5,12] + y[5] - y[12] <= 991
 c061: 1000 d[6,1] - y[1] + y[6] <= 994
 c062: 1000 d[6,2] - y[2] + y[6] <= 994
 c063: 1000 d[6,3] - y[3] + y[6] <= 994
 c064: 1000 d[6,4] - y[4] + y[6] <= 994
 c065: 1000 d[6,5] - y[5] + y[6] <= 994
 c067: 1000 d[6,7] + y[6] - y[7] <= 994
 c068: 1000 d[6,8] + y[6] - y[8] <= 994
 c069: 1000 d[6,9] + y[6] - y[9] <= 994
 c0610: 1000 d[6,10] + y[6] - y[10] <= 994
 c0611: 1000 d[6,11] + y[6] - y[11] <= 994
 c0612: 1000 d[6,12] + y[6] - y[12] <= 994
 c071: 1000 d[7,1] - y[1] + y[7] <= 994
 c072: 1000 d[7,2] - y[2] + y[7] <= 994
 c073: 1000 d[7,3] - y[3] + y[7] <= 994
 c074: 1000 d[7,4] - y[4] + y[7] <= 994
 c075: 1000 d[7,5] - y[5] + y[7] <= 994
 c076: 1000 d[7,6] - y[6] + y[7] <= 994
 c078: 1000 d[7,8] + y[7] - y[8] <= 994
 c079: 1000 d[7,9] + y[7] - y[9] <= 994
 c0710: 1000 d[7,10] + y[7] - y[10] <= 994
 c0711: 1000 d[7,11] + y[7] - y[11] <= 994
 c0712: 1000 d[7,12] + y[7] - y[12] <= 994
 c081: 1000 d[8,1] - y[1] + y[8] <= 995
 c082: 1000 d[8,2] - y[2] + y[8] <= 995
 c083: 1000 d[8,3] - y[3] + y[8] <= 995
 c084: 1000 d[8,4] - y[4] + y[8] <= 995
 c085: 1000 d[8,5] - y[5] + y[8] <= 995
 c086: 1000 d[8,6] - y[6] + y[8] <= 995
 c087: 1000 d[8,7] - y[7] + y[8] <= 995
 c089: 1000 d[8,9] + y[8] - y[9] <= 995
 c0810: 1000 d[8,10] + y[8] - y[10] <= 995
 c0811: 1000 d[8,11] + y[8] - y[11] <= 995
 c0812: 1000 d[8,12] + y[8] - y[12] <= 995
 c091: 1000 d[9,1] - y[1] + y[9] <= 995
 c092: 1000 d[9,2] - y[2] + y[9] <= 995
 c093: 1000 d[9,3] - y[3] + y[9] <= 995
 c094: 1000 d[9,4] - y[4] + y[9] <= 995
 c095: 1000 d[9,5] - y[5] + y[9] <= 995
 c096: 1000 d[9,6] - y[6] + y[9] <= 995
 c097: 1000 d[9,7] - y[7] + y[9] <= 995
 c098: 1000 d[9,8] - y[8] + y[9] <= 995
 c0910: 1000 d[9,10] + y[9] - y[10] <= 995
 c0911: 1000 d[9,11] + y[9] - y[11] <= 995
 c0912: 1000 d[9,12] + y[9] - y[12] <= 995
 c0101: 1000 d[10,1] - y[1] + y[10] <= 995
 c0102: 1000 d[10,2] - y[2] + y[10] <= 995
 c0103: 1000 d[10,3] - y[3] + y[10] <= 995
 c0104: 1000 d[10,4] - y[4] + y[10] <= 995
 c0105: 1000 d[10,5] - y[5] + y[10] <= 995
 c0106: 1000 d[10,6] - y[6] + y[10] <= 995
 c0107: 1000 d[10,7] - y[7] + y[10] <= 995
 c0108: 1000 d[10,8] - y[8] + y[10] <= 995
 c0109: 1000 d[10,9] - y[9] + y[10] <= 995
 c01011: 1000 d[10,11] + y[10] - y[11] <= 995
 c01012: 1000 d[10,12] + y[10] - y[12] <= 995
 c0111: 1000 d[11,1] - y[1] + y[11] <= 995
 c0112: 1000 d[11,2] - y[2] + y[11] <= 995
 c0113: 1000 d[11,3] - y[3] + y[11] <= 995
 c0114: 1000 d[11,4] - y[4] + y[11] <= 995
 c0115: 1000 d[11,5] - y[5] + y[11] <= 995
 c0116: 1000 d[11,6] - y[6] + y[11] <= 995
 c0117: 1000 d[11,7] - y[7] + y[11] <= 995
 c0118: 1000 d[11,8] - y[8] + y[11] <= 995
 c0119: 1000 d[11,9] - y[9] + y[11] <= 995
 c01110: 1000 d[11,10] - y[10] + y[11] <= 995
 c01112: 1000 d[11,12] + y[11] - y[12] <= 995
 c0121: 1000 d[12,1] - y[1] + y[12] <= 996
 c0122: 1000 d[12,2] - y[2] + y[12] <= 996
 c0123: 1000 d[12,3] - y[3] + y[12] <= 996
 c0124: 1000 d[12,4] - y[4] + y[12] <= 996
 c0125: 1000 d[12,5] - y[5] + y[12] <= 996
 c0126: 1000 d[12,6] - y[6] + y[12] <= 996
 c0127: 1000 d[12,7] - y[7] + y[12] <= 996
 c0128: 1000 d[12,8] - y[8] + y[12] <= 996
 c0129: 1000 d[12,9] - y[9] + y[12] <= 996
 c01210: 1000 d[12,10] - y[10] + y[12] <= 996
 c01211: 1000 d[12,11] - y[11] + y[12] <= 996
 c112: 1000 l[1,2] + x[1] - x[2] <= 986
 c113: 1000 l[1,3] + x[1] - x[3] <= 986
 c114: 1000 l[1,4] + x[1] - x[4] <= 986
 c115: 1000 l[1,5] + x[1] - x[5] <= 986
 c116: 1000 l[1,6] + x[1] - x[6] <= 986
 c117: 1000 l[1,7] + x[1] - x[7] <= 986
 c118: 1000 l[1,8] + x[1] - x[8] <= 986
 c119: 1000 l[1,9] + x[1] - x[9] <= 986
 c1110: 1000 l[1,10] + x[1] - x[10] <= 986
 c1111: 1000 l[1,11] + x[1] - x[11] <= 986
 c1112: 1000 l[1,12] + x[1] - x[12] <= 986
 c121: 1000 l[2,1] - x[1] + x[2] <= 987
 c123: 1000 l[2,3] + x[2] - x[3] <= 987
 c124: 1000 l[2,4] + x[2] - x[4] <= 987
 c125: 1000 l[2,5] + x[2] - x[5] <= 987
 c126: 1000 l[2,6] + x[2] - x[6] <= 987
 c127: 1000 l[2,7] + x[2] - x[7] <= 987
 c128: 1000 l[2,8] + x[2] - x[8] <= 987
 c129: 1000 l[2,9] + x[2] - x[9] <= 987
 c1210: 1000 l[2,10] + x[2] - x[10] <= 987
 c1211: 1000 l[2,11] + x[2] - x[11] <= 987
 c1212: 1000 l[2,12] + x[2] - x[12] <= 987
 c131: 1000 l[3,1] - x[1] + x[3] <= 987
 c132: 1000 l[3,2] - x[2] + x[3] <= 987
 c134: 1000 l[3,4] + x[3] - x[4] <= 987
 c135: 1000 l[3,5] + x[3] - x[5] <= 987
 c136: 1000 l[3,6] + x[3] - x[6] <= 987
 c137: 1000 l[3,7] + x[3] - x[7] <= 987
 c138: 1000 l[3,8] + x[3] - x[8] <= 987
 c139: 1000 l[3,9] + x[3] - x[9] <= 987
 c1310: 1000 l[3,10] + x[3] - x[10] <= 987
 c1311: 1000 l[3,11] + x[3] - x[11] <= 987
 c1312: 1000 l[3,12] + x[3] - x[12] <= 987
 c141: 1000 l[4,1] - x[1] + x[4] <= 987
 c142: 1000 l[4,2] - x[2] + x[4] <= 987
 c143: 1000 l[4,3] - x[3] + x[4] <= 987
 c145: 1000 l[4,5] + x[4] - x[5] <= 987
 c146: 1000 l[4,6] + x[4] - x[6] <= 987
 c147: 1000 l[4,7] + x[4] - x[7] <= 987
 c148: 1000 l[4,8] + x[4] - x[8] <= 987
 c149: 1000 l[4,9] + x[4] - x[9] <= 987
 c1410: 1000 l[4,10] + x[4] - x[10] <= 987
 c1411: 1000 l[4,11] + x[4] - x[11] <= 987
 c1412: 1000 l[4,12] + x[4] - x[12] <= 987
 c151: 1000 l[5,1] - x[1] + x[5] <= 987
 c152: 1000 l[5,2] - x[2] + x[5] <= 987
 c153: 1000 l[5,3] - x[3] + x[5] <= 987
 c154: 1000 l[5,4] - x[4] + x[5] <= 987
 c156: 1000 l[5,6] + x[5] - x[6] <= 987
 c157: 1000 l[5,7] + x[5] - x[7] <= 987
 c158: 1000 l[5,8] + x[5] - x[8] <= 987
 c159: 1000 l[5,9] + x[5] - x[9] <= 987
 c1510: 1000 l[5,10] + x[5] - x[10] <= 987
 c1511: 1000 l[5,11] + x[5] - x[11] <= 987
 c1512: 1000 l[5,12] + x[5] - x[12] <= 987
 c161: 1000 l[6,1] - x[1] + x[6] <= 992
 c162: 1000 l[6,2] - x[2] + x[6] <= 992
 c163: 1000 l[6,3] - x[3] + x[6] <= 992
 c164: 1000 l[6,4] - x[4] + x[6] <= 992
 c165: 1000 l[6,5] - x[5] + x[6] <= 992
 c167: 1000 l[6,7] + x[6] - x[7] <= 992
 c168: 1000 l[6,8] + x[6] - x[8] <= 992
 c169: 1000 l[6,9] + x[6] - x[9] <= 992
 c1610: 1000 l[6,10] + x[6] - x[10] <= 992
 c1611: 1000 l[6,11] + x[6] - x[11] <= 992
 c1612: 1000 l[6,12] + x[6] - x[12] <= 992
 c171: 1000 l[7,1] - x[1] + x[7] <= 993
 c172: 1000 l[7,2] - x[2] + x[7] <= 993
 c173: 1000 l[7,3] - x[3] + x[7] <= 993
 c174: 1000 l[7,4] - x[4] + x[7] <= 993
 c175: 1000 l[7,5] - x[5] + x[7] <= 993
 c176: 1000 l[7,6] - x[6] + x[7] <= 993
 c178: 1000 l[7,8] + x[7] - x[8] <= 993
 c179: 1000 l[7,9] + x[7] - x[9] <= 993
 c1710: 1000 l[7,10] + x[7] - x[10] <= 993
 c1711: 1000 l[7,11] + x[7] - x[11] <= 993
 c1712: 1000 l[7,12] + x[7] - x[12] <= 993
 c181: 1000 l[8,1] - x[1] + x[8] <= 993
 c182: 1000 l[8,2] - x[2] + x[8] <= 993
 c183: 1000 l[8,3] - x[3] + x[8] <= 993
 c184: 1000 l[8,4] - x[4] + x[8] <= 993
 c185: 1000 l[8,5] - x[5] + x[8] <= 993
 c186: 1000 l[8,6] - x[6] + x[8] <= 993
 c187: 1000 l[8,7] - x[7] + x[8] <= 993
 c189: 1000 l[8,9] + x[8] - x[9] <= 993
 c1810: 1000 l[8,10] + x[8] - x[10] <= 993
 c1811: 1000 l[8,11] + x[8] - x[11] <= 993
 c1812: 1000 l[8,12] + x[8] - x[12] <= 993
 c191: 1000 l[9,1] - x[1] + x[9] <= 994
 c192: 1000 l[9,2] - x[2] + x[9] <= 994
 c193: 1000 l[9,3] - x[3] + x[9] <= 994
 c194: 1000 l[9,4] - x[4] + x[9] <= 994
 c195: 1000 l[9,5] - x[5] + x[9] <= 994
 c196: 1000 l[9,6] - x[6] + x[9] <= 994
 c197: 1000 l[9,7] - x[7] + x[9] <= 994
 c198: 1000 l[9,8] - x[8] + x[9] <= 994
 c1910: 1000 l[9,10] + x[9] - x[10] <= 994
 c1911: 1000 l[9,11] + x[9] - x[11] <= 994
 c1912: 1000 l[9,12] + x[9] - x[12] <= 994
 c1101: 1000 l[10,1] - x[1] + x[10] <= 998
 c1102: 1000 l[10,2] - x[2] + x[10] <= 998
 c1103: 1000 l[10,3] - x[3] + x[10] <= 998
 c1104: 1000 l[10,4] - x[4] + x[10] <= 998
 c1105: 1000 l[10,5] - x[5] + x[10] <= 998
 c1106: 1000 l[10,6] - x[6] + x[10] <= 998
 c1107: 1000 l[10,7] - x[7] + x[10] <= 998
 c1108: 1000 l[10,8] - x[8] + x[10] <= 998
 c1109: 1000 l[10,9] - x[9] + x[10] <= 998
 c11011: 1000 l[10,11] + x[10] - x[11] <= 998
 c11012: 1000 l[10,12] + x[10] - x[12] <= 998
 c1111: 1000 l[11,1] - x[1] + x[11] <= 998
 c1112: 1000 l[11,2] - x[2] + x[11] <= 998
 c1113: 1000 l[11,3] - x[3] + x[11] <= 998
 c1114: 1000 l[11,4] - x[4] + x[11] <= 998
 c1115: 1000 l[11,5] - x[5] + x[11] <= 998
 c1116: 1000 l[11,6] - x[6] + x[11] <= 998
 c1117: 1000 l[11,7] - x[7] + x[11] <= 998
 c1118: 1000 l[11,8] - x[8] + x[11] <= 998
 c1119: 1000 l[11,9] - x[9] + x[11] <= 998
 c11110: 1000 l[11,10] - x[10] + x[11] <= 998
 c11112: 1000 l[11,12] + x[11] - x[12] <= 998
 c1121: 1000 l[12,1] - x[1] + x[12] <= 998
 c1122: 1000 l[12,2] - x[2] + x[12] <= 998
 c1123: 1000 l[12,3] - x[3] + x[12] <= 998
 c1124: 1000 l[12,4] - x[4] + x[12] <= 998
 c1125: 1000 l[12,5] - x[5] + x[12] <= 998
 c1126: 1000 l[12,6] - x[6] + x[12] <= 998
 c1127: 1000 l[12,7] - x[7] + x[12] <= 998
 c1128: 1000 l[12,8] - x[8] + x[12] <= 998
 c1129: 1000 l[12,9] - x[9] + x[12] <= 998
 c11210: 1000 l[12,10] - x[10] + x[12] <= 998
 c11211: 1000 l[12,11] - x[11] + x[12] <= 998
 c212: l[1,2] + l[2,1] <= 1
 c312: d[1,2] + d[2,1] <= 1
 c412: d[1,2] + d[2,1] + l[1,2] + l[2,1] >= 1
 c213: l[1,3] + l[3,1] <= 1
 c313: d[1,3] + d[3,1] <= 1
 c413: d[1,3] + d[3,1] + l[1,3] + l[3,1] >= 1
 c214: l[1,4] + l[4,1] <= 1
 c314: d[1,4] + d[4,1] <= 1
 c414: d[1,4] + d[4,1] + l[1,4] + l[4,1] >= 1
 c215: l[1,5] + l[5,1] <= 1
 c315: d[1,5] + d[5,1] <= 1
 c415: d[1,5] + d[5,1] + l[1,5] + l[5,1] >= 1
 c216: l[1,6] + l[6,1] <= 1
 c316: d[1,6] + d[6,1] <= 1
 c416: d[1,6] + d[6,1] + l[1,6] + l[6,1] >= 1
 c217: l[1,7] + l[7,1] <= 1
 c317: d[1,7] + d[7,1] <= 1
 c417: d[1,7] + d[7,1] + l[1,7] + l[7,1] >= 1
 c218: l[1,8] + l[8,1] <= 1
 c318: d[1,8] + d[8,1] <= 1
 c418: d[1,8] + d[8,1] + l[1,8] + l[8,1] >= 1
 c219: l[1,9] + l[9,1] <= 1
 c319: d[1,9] + d[9,1] <= 1
 c419: d[1,9] + d[9,1] + l[1,9] + l[9,1] >= 1
 c2110: l[1,10] + l[10,1] <= 1
 c3110: d[1,10] + d[10,1] <= 1
 c4110: d[1,10] + d[10,1] + l[1,10] + l[10,1] >= 1
 c2111: l[1,11] + l[11,1] <= 1
 c3111: d[1,11] + d[11,1] <= 1
 c4111: d[1,11] + d[11,1] + l[1,11] + l[11,1] >= 1
 c2112: l[1,12] + l[12,1] <= 1
 c3112: d[1,12] + d[12,1] <= 1
 c4112: d[1,12] + d[12,1] + l[1,12] + l[12,1] >= 1
 c223: l[2,3] + l[3,2] <= 1
 c323: d[2,3] + d[3,2] <= 1
 c423: d[2,3] + d[3,2] + l[2,3] + l[3,2] >= 1
 c224: l[2,4] + l[4,2] <= 1
 c324: d[2,4] + d[4,2] <= 1
 c424: d[2,4] + d[4,2] + l[2,4] + l[4,2] >= 1
 c225: l[2,5] + l[5,2] <= 1
 c325: d[2,5] + d[5,2] <= 1
 c425: d[2,5] + d[5,2] + l[2,5] + l[5,2] >= 1
 c226: l[2,6] + l[6,2] <= 1
 c326: d[2,6] + d[6,2] <= 1
 c426: d[2,6] + d[6,2] + l[2,6] + l[6,2] >= 1
 c227: l[2,7] + l[7,2] <= 1
 c327: d[2,7] + d[7,2] <= 1
 c427: d[2,7] + d[7,2] + l[2,7] + l[7,2] >= 1
 c228: l[2,8] + l[8,2] <= 1
 c328: d[2,8] + d[8,2] <= 1
 c428: d[2,8] + d[8,2] + l[2,8] + l[8,2] >= 1
 c229: l[2,9] + l[9,2] <= 1
 c329: d[2,9] + d[9,2] <= 1
 c429: d[2,9] + d[9,2] + l[2,9] + l[9,2] >= 1
 c2210: l[2,10] + l[10,2] <= 1
 c3210: d[2,10] + d[10,2] <= 1
 c4210: d[2,10] + d[10,2] + l[2,10] + l[10,2] >= 1
 c2211: l[2,11] + l[11,2] <= 1
 c3211: d[2,11] + d[11,2] <= 1
 c4211: d[2,11] + d[11,2] + l[2,11] + l[11,2] >= 1
 c2212: l[2,12] + l[12,2] <= 1
 c3212: d[2,12] + d[12,2] <= 1
 c4212: d[2,12] + d[12,2] + l[2,12] + l[12,2] >= 1
 c234: l[3,4] + l[4,3] <= 1
 c334: d[3,4] + d[4,3] <= 1
 c434: d[3,4] + d[4,3] + l[3,4] + l[4,3] >= 1
 c235: l[3,5] + l[5,3] <= 1
 c335: d[3,5] + d[5,3] <= 1
 c435: d[3,5] + d[5,3] + l[3,5] + l[5,3] >= 1
 c236: l[3,6] + l[6,3] <= 1
 c336: d[3,6] + d[6,3] <= 1
 c436: d[3,6] + d[6,3] + l[3,6] + l[6,3] >= 1
 c237: l[3,7] + l[7,3] <= 1
 c337: d[3,7] + d[7,3] <= 1
 c437: d[3,7] + d[7,3] + l[3,7] + l[7,3] >= 1
 c238: l[3,8] + l[8,3] <= 1
 c338: d[3,8] + d[8,3] <= 1
 c438: d[3,8] + d[8,3] + l[3,8] + l[8,3] >= 1
 c239: l[3,9] + l[9,3] <= 1
 c339: d[3,9] + d[9,3] <= 1
 c439: d[3,9] + d[9,3] + l[3,9] + l[9,3] >= 1
 c2310: l[3,10] + l[10,3] <= 1
 c3310: d[3,10] + d[10,3] <= 1
 c4310: d[3,10] + d[10,3] + l[3,10] + l[10,3] >= 1
 c2311: l[3,11] + l[11,3] <= 1
 c3311: d[3,11] + d[11,3] <= 1
 c4311: d[3,11] + d[11,3] + l[3,11] + l[11,3] >= 1
 c2312: l[3,12] + l[12,3] <= 1
 c3312: d[3,12] + d[12,3] <= 1
 c4312: d[3,12] + d[12,3] + l[3,12] + l[12,3] >= 1
 c245: l[4,5] + l[5,4] <= 1
 c345: d[4,5] + d[5,4] <= 1
 c445: d[4,5] + d[5,4] + l[4,5] + l[5,4] >= 1
 c246: l[4,6] + l[6,4] <= 1
 c346: d[4,6] + d[6,4] <= 1
 c446: d[4,6] + d[6,4] + l[4,6] + l[6,4] >= 1
 c247: l[4,7] + l[7,4] <= 1
 c347: d[4,7] + d[7,4] <= 1
 c447: d[4,7] + d[7,4] + l[4,7] + l[7,4] >= 1
 c248: l[4,8] + l[8,4] <= 1
 c348: d[4,8] + d[8,4] <= 1
 c448: d[4,8] + d[8,4] + l[4,8] + l[8,4] >= 1
 c249: l[4,9] + l[9,4] <= 1
 c349: d[4,9] + d[9,4] <= 1
 c449: d[4,9] + d[9,4] + l[4,9] + l[9,4] >= 1
 c2410: l[4,10] + l[10,4] <= 1
 c3410: d[4,10] + d[10,4] <= 1
 c4410: d[4,10] + d[10,4] + l[4,10] + l[10,4] >= 1
 c2411: l[4,11] + l[11,4] <= 1
 c3411: d[4,11] + d[11,4] <= 1
 c4411: d[4,11] + d[11,4] + l[4,11] + l[11,4] >= 1
 c2412: l[4,12] + l[12,4] <= 1
 c3412: d[4,12] + d[12,4] <= 1
 c4412: d[4,12] + d[12,4] + l[4,12] + l[12,4] >= 1
 c256: l[5,6] + l[6,5] <= 1
 c356: d[5,6] + d[6,5] <= 1
 c456: d[5,6] + d[6,5] + l[5,6] + l[6,5] >= 1
 c257: l[5,7] + l[7,5] <= 1
 c357: d[5,7] + d[7,5] <= 1
 c457: d[5,7] + d[7,5] + l[5,7] + l[7,5] >= 1
 c258: l[5,8] + l[8,5] <= 1
 c358: d[5,8] + d[8,5] <= 1
 c458: d[5,8] + d[8,5] + l[5,8] + l[8,5] >= 1
 c259: l[5,9] + l[9,5] <= 1
 c359: d[5,9] + d[9,5] <= 1
 c459: d[5,9] + d[9,5] + l[5,9] + l[9,5] >= 1
 c2510: l[5,10] + l[10,5] <= 1
 c3510: d[5,10] + d[10,5] <= 1
 c4510: d[5,10] + d[10,5] + l[5,10] + l[10,5] >= 1
 c2511: l[5,11] + l[11,5] <= 1
 c3511: d[5,11] + d[11,5] <= 1
 c4511: d[5,11] + d[11,5] + l[5,11] + l[11,5] >= 1
 c2512: l[5,12] + l[12,5] <= 1
 c3512: d[5,12] + d[12,5] <= 1
 c4512: d[5,12] + d[12,5] + l[5,12] + l[12,5] >= 1
 c267: l[6,7] + l[7,6] <= 1
 c367: d[6,7] + d[7,6] <= 1
 c467: d[6,7] + d[7,6] + l[6,7] + l[7,6] >= 1
 c268: l[6,8] + l[8,6] <= 1
 c368: d[6,8] + d[8,6] <= 1
 c468: d[6,8] + d[8,6] + l[6,8] + l[8,6] >= 1
 c269: l[6,9] + l[9,6] <= 1
 c369: d[6,9] + d[9,6] <= 1
 c469: d[6,9] + d[9,6] + l[6,9] + l[9,6] >= 1
 c2610: l[6,10] + l[10,6] <= 1
 c3610: d[6,10] + d[10,6] <= 1
 c4610: d[6,10] + d[10,6] + l[6,10] + l[10,6] >= 1
 c2611: l[6,11] + l[11,6] <= 1
 c3611: d[6,11] + d[11,6] <= 1
 c4611: d[6,11] + d[11,6] + l[6,11] + l[11,6] >= 1
 c2612: l[6,12] + l[12,6] <= 1
 c3612: d[6,12] + d[12,6] <= 1
 c4612: d[6,12] + d[12,6] + l[6,12] + l[12,6] >= 1
 c278: l[7,8] + l[8,7] <= 1
 c378: d[7,8] + d[8,7] <= 1
 c478: d[7,8] + d[8,7] + l[7,8] + l[8,7] >= 1
 c279: l[7,9] + l[9,7] <= 1
 c379: d[7,9] + d[9,7] <= 1
 c479: d[7,9] + d[9,7] + l[7,9] + l[9,7] >= 1
 c2710: l[7,10] + l[10,7] <= 1
 c3710: d[7,10] + d[10,7] <= 1
 c4710: d[7,10] + d[10,7] + l[7,10] + l[10,7] >= 1
 c2711: l[7,11] + l[11,7] <= 1
 c3711: d[7,11] + d[11,7] <= 1
 c4711: d[7,11] + d[11,7] + l[7,11] + l[11,7] >= 1
 c2712: l[7,12] + l[12,7] <= 1
 c3712: d[7,12] + d[12,7] <= 1
 c4712: d[7,12] + d[12,7] + l[7,12] + l[12,7] >= 1
 c289: l[8,9] + l[9,8] <= 1
 c389: d[8,9] + d[9,8] <= 1
 c489: d[8,9] + d[9,8] + l[8,9] + l[9,8] >= 1
 c2810: l[8,10] + l[10,8] <= 1
 c3810: d[8,10] + d[10,8] <= 1
 c4810: d[8,10] + d[10,8] + l[8,10] + l[10,8] >= 1
 c2811: l[8,11] + l[11,8] <= 1
 c3811: d[8,11] + d[11,8] <= 1
 c4811: d[8,11] + d[11,8] + l[8,11] + l[11,8] >= 1
 c2812: l[8,12] + l[12,8] <= 1
 c3812: d[8,12] + d[12,8] <= 1
 c4812: d[8,12] + d[12,8] + l[8,12] + l[12,8] >= 1
 c2910: l[9,10] + l[10,9] <= 1
 c3910: d[9,10] + d[10,9] <= 1
 c4910: d[9,10] + d[10,9] + l[9,10] + l[10,9] >= 1
 c2911: l[9,11] + l[11,9] <= 1
 c3911: d[9,11] + d[11,9] <= 1
 c4911: d[9,11] + d[11,9] + l[9,11] + l[11,9] >= 1
 c2912: l[9,12] + l[12,9] <= 1
 c3912: d[9,12] + d[12,9] <= 1
 c4912: d[9,12] + d[12,9] + l[9,12] + l[12,9] >= 1
 c21011: l[10,11] + l[11,10] <= 1
 c31011: d[10,11] + d[11,10] <= 1
 c41011: d[10,11] + d[11,10] + l[10,11] + l[11,10] >= 1
 c21012: l[10,12] + l[12,10] <= 1
 c31012: d[10,12] + d[12,10] <= 1
 c41012: d[10,12] + d[12,10] + l[10,12] + l[12,10] >= 1
 c21112: l[11,12] + l[12,11] <= 1
 c31112: d[11,12] + d[12,11] <= 1
 c41112: d[11,12] + d[12,11] + l[11,12] + l[12,11] >= 1
 x01: x[1] <= 6
 x11: x[1] >= 0
 y01: y[1] >= 0
 px01: - x[1] + px[1] = -4
 x01: - y[1] + yh[1] = 20
 x02: x[2] <= 7
 x12: x[2] >= 0
 y02: y[2] >= 0
 px02: - x[2] + px[2] = -2
 x02: - y[2] + yh[2] = 17
 x03: x[3] <= 7
 x13: x[3] >= 0
 y03: y[3] >= 0
 px03: - x[3] + px[3] = -2
 x03: - y[3] + yh[3] = 16
 x04: x[4] <= 7
 x14: x[4] >= 0
 y04: y[4] >= 0
 px04: - x[4] + px[4] = -5
 x04: - y[4] + yh[4] = 15
 x05: x[5] <= 7
 x15: x[5] >= 0
 y05: y[5] >= 0
 px05: - x[5] + px[5] = 0
 x05: - y[5] + yh[5] = 9
 x06: x[6] <= 12
 x16: x[6] >= 0
 y06: y[6] >= 0
 px06: - x[6] + px[6] = -9
 x06: - y[6] + yh[6] = 6
 x07: x[7] <= 13
 x17: x[7] >= 0
 y07: y[7] >= 0
 px07: - x[7] + px[7] = -2
 x07: - y[7] + yh[7] = 6
 x08: x[8] <= 13
 x18: x[8] >= 0
 y08: y[8] >= 0
 px08: - x[8] + px[8] = -5
 x08: - y[8] + yh[8] = 5
 x09: x[9] <= 14
 x19: x[9] >= 0
 y09: y[9] >= 0
 px09: - x[9] + px[9] = -3
 x09: - y[9] + yh[9] = 5
 x010: x[10] <= 18
 x110: x[10] >= 0
 y010: y[10] >= 0
 px010: - x[10] + px[10] = -6
 x010: - y[10] + yh[10] = 5
 x011: x[11] <= 18
 x111: x[11] >= 0
 y011: y[11] >= 0
 px011: - x[11] + px[11] = -5
 x011: - y[11] + yh[11] = 5
 x012: x[12] <= 18
 x112: x[12] >= 0
 y012: y[12] >= 0
 px012: - x[12] + px[12] = -10
 x012: - y[12] + yh[12] = 4
Bounds
 px[1] >= -500
 px[2] >= -500
 px[3] >= -500
 px[4] >= -500
 px[5] >= -500
 px[6] >= -500
 px[7] >= -500
 px[8] >= -500
 px[9] >= -500
 px[10] >= -500
 px[11] >= -500
 px[12] >= -500
Binaries
 d[1,2] d[1,3] d[1,4] d[1,5] d[1,6] d[1,7] d[1,8] d[1,9] d[1,10] d[1,11]
 d[1,12] d[2,1] d[2,3] d[2,4] d[2,5] d[2,6] d[2,7] d[2,8] d[2,9] d[2,10]
 d[2,11] d[2,12] d[3,1] d[3,2] d[3,4] d[3,5] d[3,6] d[3,7] d[3,8] d[3,9]
 d[3,10] d[3,11] d[3,12] d[4,1] d[4,2] d[4,3] d[4,5] d[4,6] d[4,7] d[4,8]
 d[4,9] d[4,10] d[4,11] d[4,12] d[5,1] d[5,2] d[5,3] d[5,4] d[5,6] d[5,7]
 d[5,8] d[5,9] d[5,10] d[5,11] d[5,12] d[6,1] d[6,2] d[6,3] d[6,4] d[6,5]
 d[6,7] d[6,8] d[6,9] d[6,10] d[6,11] d[6,12] d[7,1] d[7,2] d[7,3] d[7,4]
 d[7,5] d[7,6] d[7,8] d[7,9] d[7,10] d[7,11] d[7,12] d[8,1] d[8,2] d[8,3]
 d[8,4] d[8,5] d[8,6] d[8,7] d[8,9] d[8,10] d[8,11] d[8,12] d[9,1] d[9,2]
 d[9,3] d[9,4] d[9,5] d[9,6] d[9,7] d[9,8] d[9,10] d[9,11] d[9,12] d[10,1]
 d[10,2] d[10,3] d[10,4] d[10,5] d[10,6] d[10,7] d[10,8] d[10,9] d[10,11]
 d[10,12] d[11,1] d[11,2] d[11,3] d[11,4] d[11,5] d[11,6] d[11,7] d[11,8]
 d[11,9] d[11,10] d[11,12] d[12,1] d[12,2] d[12,3] d[12,4] d[12,5] d[12,6]
 d[12,7] d[12,8] d[12,9] d[12,10] d[12,11] l[1,2] l[1,3] l[1,4] l[1,5]
 l[1,6] l[1,7] l[1,8] l[1,9] l[1,10] l[1,11] l[1,12] l[2,1] l[2,3] l[2,4]
 l[2,5] l[2,6] l[2,7] l[2,8] l[2,9] l[2,10] l[2,11] l[2,12] l[3,1] l[3,2]
 l[3,4] l[3,5] l[3,6] l[3,7] l[3,8] l[3,9] l[3,10] l[3,11] l[3,12] l[4,1]
 l[4,2] l[4,3] l[4,5] l[4,6] l[4,7] l[4,8] l[4,9] l[4,10] l[4,11] l[4,12]
 l[5,1] l[5,2] l[5,3] l[5,4] l[5,6] l[5,7] l[5,8] l[5,9] l[5,10] l[5,11]
 l[5,12] l[6,1] l[6,2] l[6,3] l[6,4] l[6,5] l[6,7] l[6,8] l[6,9] l[6,10]
 l[6,11] l[6,12] l[7,1] l[7,2] l[7,3] l[7,4] l[7,5] l[7,6] l[7,8] l[7,9]
 l[7,10] l[7,11] l[7,12] l[8,1] l[8,2] l[8,3] l[8,4] l[8,5] l[8,6] l[8,7]
 l[8,9] l[8,10] l[8,11] l[8,12] l[9,1] l[9,2] l[9,3] l[9,4] l[9,5] l[9,6]
 l[9,7] l[9,8] l[9,10] l[9,11] l[9,12] l[10,1] l[10,2] l[10,3] l[10,4]
 l[10,5] l[10,6] l[10,7] l[10,8] l[10,9] l[10,11] l[10,12] l[11,1] l[11,2]
 l[11,3] l[11,4] l[11,5] l[11,6] l[11,7] l[11,8] l[11,9] l[11,10] l[11,12]
 l[12,1] l[12,2] l[12,3] l[12,4] l[12,5] l[12,6] l[12,7] l[12,8] l[12,9]
 l[12,10] l[12,11]
Generals
 x[1] x[2] x[3] x[4] x[5] x[6] x[7] x[8] x[9] x[10] x[11] x[12] y[1] y[2]
 y[3] y[4] y[5] y[6] y[7] y[8] y[9] y[10] y[11] y[12] h_max px[1] px[2]
 px[3] px[4] px[5] px[6] px[7] px[8] px[9] px[10] px[11] px[12] yh[1] yh[2]
 yh[3] yh[4] yh[5] yh[6] yh[7] yh[8] yh[9] yh[10] yh[11] yh[12] pxf[1]
 pxf[2] pxf[3] pxf[4] pxf[5] pxf[6] pxf[7] pxf[8] pxf[9] pxf[10] pxf[11]
 pxf[12]
General Constraints
 max_height: h_max = MAX ( yh[1] , yh[2] , yh[3] , yh[4] , yh[5] , yh[6] ,
   yh[7] , yh[8] , yh[9] , yh[10] , yh[11] , yh[12] )
 abspx1: pxf[1] = ABS ( px[1] )
 abspx2: pxf[2] = ABS ( px[2] )
 abspx3: pxf[3] = ABS ( px[3] )
 abspx4: pxf[4] = ABS ( px[4] )
 abspx5: pxf[5] = ABS ( px[5] )
 abspx6: pxf[6] = ABS ( px[6] )
 abspx7: pxf[7] = ABS ( px[7] )
 abspx8: pxf[8] = ABS ( px[8] )
 abspx9: pxf[9] = ABS ( px[9] )
 abspx10: pxf[10] = ABS ( px[10] )
 abspx11: pxf[11] = ABS ( px[11] )
 abspx12: pxf[12] = ABS ( px[12] )
End
